groups = 27;
numShifts = 3;
demand = [| 7, 7, 7, 7, 7, 4, 4,
          | 7, 7, 7, 7, 7, 4, 4,
          | 7, 7, 7, 7, 7, 4, 4 |];
minShift = [2, 2, 2];
maxShift = [7, 6, 5];
minOff = 2;
maxOff = 4;
minOn = 4;
maxOn = 7;
forbidden = [{}, {1}, {1,2}];
forbidden3 = [|  |];
